$CONTRL SCFTYP=RHF DFTTYP=b3lyp RUNTYP=OPTIMIZE ICHARG=0
COORD=UNIQUE MULT=1 MAXIT=200 ISPHER=1 $END
$SYSTEM MWORDS=50 MEMDDI=30 $END
$STATPT NSTEP=100 HSSEND=.T. $END
$BASIS GBASIS=AM1 $END
$GUESS GUESS=HUCKEL $END
$DATA
optg and freq
C1
N  7	-0.3673	0.7406	0.0000
H  1	-0.3673	1.8106	0.0000
H  1	-0.3673	0.3840	1.0088
H  1	0.5064	0.3840	-0.5044
$END
